c Generated by SAT Solver
p cnf 1002 30
101 102 0
201 202 0
301 302 0
401 402 0
501 502 0
601 602 0
701 702 0
801 802 0
901 902 0
1001 1002 0
-101 -102 0
-201 -202 0
-301 -302 0
-401 -402 0
-501 -502 0
-601 -602 0
-701 -702 0
-801 -802 0
-901 -902 0
-1001 -1002 0
-301 -401 0
-302 -402 0
-301 -501 0
-302 -502 0
-401 -501 0
-402 -502 0
-501 -601 0
-502 -602 0
-601 -1001 0
-602 -1002 0
